SDVRPTW/PR04.sol
Route #1: 52 70 178 160 114 148 78 182
Route #2: 139 190 162 123 124 156 58 134 192
Route #3: 125 180 96 88 174 121 150
Route #4: 95 103 188 170 74 175 28 87 86
Route #5: 149 49 65 104 137 176 73 36
Route #6: 84 76 15 179 29 90 169 126 163 120 7 41
Route #7: 145 3 93 85 187 17 66 56 9 116
Route #8: 13 71 40 38 54 83 16 168 63 75
Route #9: 166 89 94 147 111 100 11 141 191 152
Route #10: 129 165 159 110 130 102 136 30 119
Route #11: 135 55 91 92 158 109 46 161 81 64 27 146
Route #12: 138 22 45 167 6 151 62 132 44 101
Route #13: 77 113 143 82 25 115 59 23 177 67 79 106 24 60 184
Route #14: 183 107 131 48 12 133 20 32 153 21 112
Route #15:
Route #16: 127 26 181 186 189 34
Route #17: 47 122 69 171 80 31 155 117 42 14 33 105 68 35 19
Route #18: 10 157 72 173 43 97 57 18 2
Route #19: 5 37 51 61 50 140 172 154 98 128
Route #20: 144 164 1 185 108 142 8 118 39 53 4 99
Cost: 4427251
